(set-logic ALL)
(set-option :produce-models true)
(set-option :finite-model-find true)
(declare-sort Entity 0)
(declare-fun Bagian_dari (Entity Entity) Bool)
(declare-fun Bermasalah (Entity) Bool)
(declare-fun Direvisi (Entity) Bool)
(declare-fun Pasal (Entity) Bool)
(declare-const uu_tni Entity)
(declare-const x Entity)
(assert (not (=> (exists ((x Entity)) (and (Pasal x) (Bagian_dari x uu_tni) (Bermasalah x))) (Direvisi uu_tni))))
(check-sat)
(get-model)